assets/logs/7_14x14_clingo/7_14x14_clingo.solution.log

---------------------------------------------------------
|  1| 51|109|  0|117|  0|165|130| 33|  0|  0|126|168|174|
---------------------------------------------------------
|111|  0|115| 49|107| 41| 35|  1|163|128|166|172|  1|124|
---------------------------------------------------------
| 53| 47|105|119| 61|167|132| 39|164| 31|136|122|176|170|
---------------------------------------------------------
|103|113| 55|169| 43| 37| 46|161|134|  1|162| 12|138|120|
---------------------------------------------------------
|177|171| 45| 63|121| 59|100|  0| 48| 10| 29|118|160|178|
---------------------------------------------------------
|  1|101|175| 57|102| 44|123|  8|159|  1| 50|140| 14| 25|
---------------------------------------------------------
|173|135| 65| 94|125|131|104| 98|112|142|108| 27|116|158|
---------------------------------------------------------
| 99| 92|127|133| 42| 96|  6| 64|106|157|114| 52| 23| 16|
---------------------------------------------------------
|137| 83| 97| 67|129|143| 40|155| 60|110|144| 19|156| 54|
---------------------------------------------------------
| 90| 69|139|145|  1|  4| 62|  1| 66| 36| 58| 28| 18| 21|
---------------------------------------------------------
| 85| 95| 81| 71|141| 82|149| 38|153|146| 17| 74| 56|154|
---------------------------------------------------------
| 79| 88| 91|  9|147| 73|  2|  1| 34| 68| 30| 20| 26| 72|
---------------------------------------------------------
| 93| 87|  5| 75| 84| 11| 80|151|148| 15| 76| 70|152| 22|
---------------------------------------------------------
|  3| 77| 86| 89|  7|  0|  1| 13| 78| 32|150| 24|  0|  0|
---------------------------------------------------------

| n = 14 | k = 10 | coverage = 187, 95.40816326530613%
 Time 299.968
 Name 7_14x14_clingo

