assets/logs/7_14x14_clingo/7_14x14_clingo.log
clingo version 5.4.0
Reading from ...ts/logs/7_14x14_clingo/knights_tour.lp ...
Solving...
Answer: 1
occ(1,4,10) occ(1,10,8) occ(1,10,5) occ(1,12,8) occ(1,6,1) occ(1,2,8) occ(1,6,10) occ(1,14,7) occ(1,2,13) occ(1,1,1) occ(2,12,7) occ(3,14,1) coverage(6)
Optimization: -6
Answer: 2
occ(1,4,10) occ(1,10,8) occ(1,10,5) occ(1,12,8) occ(1,6,1) occ(1,2,8) occ(1,6,10) occ(1,14,7) occ(1,2,13) occ(1,1,1) occ(2,12,7) occ(3,14,1) coverage(7) occ(6,13,8) occ(4,14,6)
Optimization: -7
Answer: 3
occ(1,4,10) occ(1,10,8) occ(1,10,5) occ(1,12,8) occ(1,6,1) occ(1,2,8) occ(1,6,10) occ(1,14,7) occ(1,2,13) occ(1,1,1) occ(2,12,7) occ(3,14,1) coverage(110) occ(45,1,13) occ(49,1,9) occ(77,1,11) occ(111,1,8) occ(117,1,7) occ(121,1,3) occ(129,1,5) occ(195,1,2) occ(30,2,9) occ(41,2,12) occ(47,2,11) occ(51,2,7) occ(109,2,6) occ(113,2,10) occ(119,2,5) occ(125,2,4) occ(131,2,3) occ(32,3,7) occ(40,3,3) occ(43,3,14) occ(75,3,10) occ(79,3,12) occ(115,3,8) occ(123,3,2) occ(127,3,6) occ(133,3,5) occ(147,3,4) occ(165,3,9) occ(193,3,1) occ(28,4,8) occ(34,4,9) occ(38,4,5) occ(39,4,13) occ(42,4,1) occ(53,4,6) occ(73,4,12) occ(81,4,14) occ(107,4,7) occ(151,4,3) occ(157,4,4) occ(167,4,11) occ(24,5,11) occ(36,5,7) occ(71,5,14) occ(98,5,8) occ(135,5,4) occ(145,5,3) occ(149,5,5) occ(153,5,1) occ(159,5,6) occ(163,5,10) occ(169,5,9) occ(191,5,2) occ(13,6,4) occ(26,6,9) occ(37,6,14) occ(44,6,2) occ(55,6,5) occ(83,6,13) occ(102,6,7) occ(105,6,6) occ(155,6,3) occ(161,6,8) occ(11,7,2) occ(15,7,6) occ(22,7,12) occ(69,7,13) occ(96,7,7) occ(100,7,9) occ(103,7,8) occ(104,7,5) occ(137,7,3) occ(143,7,4) occ(171,7,10) occ(189,7,1) occ(17,8,8) occ(35,8,13) occ(46,8,3) occ(57,8,6) occ(85,8,14) occ(94,8,9) occ(101,8,10) occ(108,8,4) occ(141,8,2) occ(9,9,3) occ(19,9,10) occ(20,9,11) occ(48,9,1) occ(59,9,8) occ(60,9,5) occ(67,9,14) occ(92,9,7) occ(106,9,6) occ(139,9,4) occ(173,9,9) occ(187,9,2) occ(33,10,14) occ(61,10,10) occ(62,10,3) occ(87,10,13) occ(99,10,11) occ(175,10,7) occ(185,10,4) occ(7,11,4) occ(10,11,12) occ(18,11,10) occ(21,11,11) occ(50,11,2) occ(58,11,6) occ(65,11,13) occ(72,11,3) occ(90,11,8) occ(97,11,9) occ(177,11,5) occ(181,11,7) occ(6,12,9) occ(25,12,12) occ(31,12,13) occ(54,12,3) occ(63,12,11) occ(64,12,2) occ(68,12,4) occ(74,12,1) occ(80,12,6) occ(88,12,10) occ(89,12,14) occ(183,12,5) occ(5,13,3) occ(8,13,11) occ(12,13,13) occ(16,13,9) occ(23,13,10) occ(27,13,14) occ(52,13,1) occ(56,13,5) occ(70,13,2) occ(78,13,4) occ(84,13,7) occ(91,13,12) occ(95,13,8) occ(179,13,6) occ(4,14,8) occ(14,14,11) occ(29,14,12) occ(66,14,3) occ(76,14,2) occ(82,14,5) occ(86,14,9) occ(93,14,10)
Optimization: -110
Answer: 4
occ(1,4,10) occ(1,10,8) occ(1,10,5) occ(1,12,8) occ(1,6,1) occ(1,2,8) occ(1,6,10) occ(1,14,7) occ(1,2,13) occ(1,1,1) occ(2,12,7) occ(3,14,1) coverage(154) occ(45,1,13) occ(49,1,9) occ(77,1,11) occ(111,1,8) occ(117,1,7) occ(121,1,3) occ(129,1,5) occ(30,2,9) occ(41,2,12) occ(47,2,11) occ(51,2,7) occ(109,2,6) occ(113,2,10) occ(119,2,5) occ(125,2,4) occ(131,2,3) occ(149,2,2) occ(32,3,7) occ(40,3,3) occ(43,3,14) occ(75,3,10) occ(79,3,12) occ(115,3,8) occ(123,3,2) occ(127,3,6) occ(133,3,5) occ(147,3,4) occ(18,4,11) occ(28,4,8) occ(34,4,9) occ(38,4,5) occ(39,4,13) occ(42,4,1) occ(53,4,6) occ(73,4,12) occ(81,4,14) occ(107,4,7) occ(148,4,4) occ(151,4,3) occ(20,5,13) occ(24,5,11) occ(36,5,7) occ(71,5,14) occ(98,5,8) occ(132,5,5) occ(135,5,4) occ(142,5,6) occ(145,5,3) occ(146,5,2) occ(153,5,1) occ(13,6,8) occ(16,6,12) occ(26,6,9) occ(37,6,14) occ(44,6,2) occ(55,6,5) occ(83,6,13) occ(102,6,7) occ(105,6,6) occ(144,6,4) occ(150,6,3) occ(15,7,10) occ(22,7,12) occ(69,7,13) occ(96,7,7) occ(100,7,9) occ(103,7,8) occ(130,7,6) occ(134,7,4) occ(137,7,3) occ(140,7,5) occ(143,7,2) occ(152,7,1) occ(11,8,7) occ(14,8,11) occ(17,8,12) occ(35,8,13) occ(46,8,3) occ(57,8,6) occ(85,8,14) occ(94,8,9) occ(101,8,10) occ(104,8,8) occ(108,8,4) occ(136,8,2) occ(139,8,1) occ(12,9,13) occ(19,9,10) occ(48,9,1) occ(59,9,8) occ(60,9,5) occ(67,9,14) occ(92,9,11) occ(106,9,6) occ(110,9,2) occ(128,9,7) occ(138,9,4) occ(141,9,3) occ(9,10,6) occ(21,10,12) occ(33,10,14) occ(61,10,10) occ(62,10,3) occ(87,10,13) occ(99,10,11) occ(126,10,9) occ(7,11,4) occ(10,11,12) occ(23,11,14) occ(50,11,2) occ(58,11,6) occ(64,11,5) occ(65,11,13) occ(68,11,3) occ(82,11,8) occ(90,11,10) occ(97,11,9) occ(112,11,1) occ(120,11,7) occ(124,11,11) occ(5,12,2) occ(25,12,12) occ(31,12,13) occ(54,12,3) occ(63,12,11) occ(70,12,1) occ(74,12,5) occ(80,12,6) occ(84,12,10) occ(89,12,14) occ(116,12,4) occ(122,12,9) occ(4,13,9) occ(8,13,13) occ(27,13,14) occ(52,13,1) occ(56,13,5) occ(66,13,4) occ(72,13,3) occ(76,13,7) occ(88,13,11) occ(91,13,12) occ(95,13,8) occ(114,13,2) occ(118,13,6) occ(6,14,11) occ(29,14,12) occ(78,14,5) occ(86,14,9) occ(93,14,10)
Optimization: -154
Answer: 5
occ(1,4,10) occ(1,10,8) occ(1,10,5) occ(1,12,8) occ(1,6,1) occ(1,2,8) occ(1,6,10) occ(1,14,7) occ(1,2,13) occ(1,1,1) occ(2,12,7) occ(3,14,1) coverage(165) occ(45,1,13) occ(49,1,9) occ(77,1,11) occ(102,1,10) occ(111,1,4) occ(121,1,5) occ(129,1,3) occ(30,2,9) occ(41,2,12) occ(47,2,11) occ(51,2,7) occ(109,2,6) occ(113,2,2) occ(119,2,3) occ(125,2,4) occ(131,2,1) occ(32,3,7) occ(40,3,3) occ(43,3,14) occ(53,3,5) occ(75,3,10) occ(79,3,12) occ(100,3,9) occ(104,3,11) occ(107,3,8) occ(117,3,1) occ(123,3,6) occ(127,3,2) occ(147,3,4) occ(18,4,11) occ(28,4,8) occ(34,4,9) occ(38,4,5) occ(39,4,13) occ(42,4,1) occ(55,4,7) occ(73,4,12) occ(81,4,14) occ(115,4,3) occ(133,4,2) occ(148,4,4) occ(149,4,6) occ(20,5,13) occ(24,5,11) occ(36,5,7) occ(71,5,14) occ(98,5,8) occ(105,5,9) occ(106,5,10) occ(132,5,5) occ(135,5,4) occ(142,5,6) occ(145,5,3) occ(146,5,2) occ(13,6,8) occ(16,6,12) occ(26,6,9) occ(37,6,14) occ(44,6,2) occ(57,6,6) occ(83,6,13) occ(86,6,5) occ(103,6,11) occ(144,6,4) occ(150,6,3) occ(151,6,7) occ(15,7,10) occ(22,7,12) occ(59,7,8) occ(69,7,13) occ(96,7,7) occ(108,7,11) occ(130,7,6) occ(134,7,4) occ(137,7,3) occ(140,7,5) occ(143,7,2) occ(152,7,1) occ(11,8,7) occ(14,8,11) occ(35,8,13) occ(46,8,3) occ(61,8,10) occ(84,8,6) occ(85,8,14) occ(88,8,4) occ(94,8,5) occ(101,8,12) occ(136,8,2) occ(139,8,1) occ(153,8,8) occ(12,9,13) occ(17,9,11) occ(48,9,1) occ(60,9,5) occ(63,9,12) occ(67,9,14) occ(90,9,6) occ(110,9,10) occ(128,9,7) occ(138,9,4) occ(141,9,3) occ(154,9,2) occ(9,10,6) occ(21,10,12) occ(33,10,14) occ(62,10,3) occ(82,10,7) occ(87,10,13) occ(92,10,4) occ(99,10,11) occ(124,10,10) occ(155,10,9) occ(7,11,4) occ(10,11,12) occ(19,11,10) occ(23,11,14) occ(50,11,2) occ(58,11,6) occ(64,11,5) occ(65,11,13) occ(68,11,3) occ(97,11,9) occ(112,11,11) occ(120,11,7) occ(126,11,8) occ(156,11,1) occ(5,12,2) occ(25,12,12) occ(31,12,13) occ(70,12,1) occ(74,12,5) occ(80,12,6) occ(89,12,14) occ(122,12,9) occ(157,12,10) occ(158,12,3) occ(164,12,4) occ(4,13,9) occ(8,13,13) occ(27,13,14) occ(52,13,1) occ(56,13,5) occ(66,13,4) occ(72,13,3) occ(76,13,7) occ(91,13,12) occ(95,13,8) occ(114,13,10) occ(118,13,6) occ(161,13,11) occ(162,13,2) occ(6,14,11) occ(29,14,12) occ(54,14,3) occ(78,14,5) occ(93,14,10) occ(116,14,8) occ(159,14,9) occ(160,14,4) occ(163,14,13)
Optimization: -165
Answer: 6
occ(1,4,10) occ(1,10,8) occ(1,10,5) occ(1,12,8) occ(1,6,1) occ(1,2,8) occ(1,6,10) occ(1,14,7) occ(1,2,13) occ(1,1,1) occ(2,12,7) occ(3,14,1) coverage(169) occ(21,1,5) occ(25,1,9) occ(29,1,13) occ(34,1,12) occ(38,1,8) occ(50,1,10) occ(54,1,14) occ(72,1,7) occ(78,1,2) occ(88,1,3) occ(159,1,6) occ(163,1,4) occ(23,2,7) occ(27,2,11) occ(36,2,10) occ(40,2,6) occ(52,2,12) occ(74,2,5) occ(82,2,3) occ(86,2,1) occ(97,2,4) occ(165,2,2) occ(19,3,4) occ(31,3,12) occ(32,3,11) occ(48,3,9) occ(56,3,13) occ(62,3,14) occ(70,3,8) occ(76,3,3) occ(80,3,1) occ(83,3,10) occ(90,3,2) occ(99,3,6) occ(157,3,7) occ(161,3,5) occ(33,4,14) occ(42,4,7) occ(58,4,11) occ(64,4,12) occ(84,4,2) occ(85,4,8) occ(92,4,4) occ(95,4,3) occ(155,4,5) occ(167,4,1) occ(13,5,1) occ(17,5,3) occ(30,5,12) occ(46,5,8) occ(59,5,10) occ(60,5,13) occ(68,5,9) occ(81,5,11) occ(87,5,6) occ(101,5,5) occ(108,5,7) occ(135,5,2) occ(11,6,3) occ(18,6,7) occ(24,6,12) occ(28,6,14) occ(35,6,13) occ(44,6,6) occ(57,6,8) occ(66,6,11) occ(93,6,2) occ(94,6,5) occ(110,6,9) occ(153,6,4) occ(15,7,2) occ(22,7,10) occ(49,7,9) occ(61,7,11) occ(65,7,13) occ(79,7,12) occ(89,7,5) occ(98,7,6) occ(103,7,4) occ(106,7,8) occ(112,7,7) occ(133,7,3) occ(137,7,1) occ(9,8,2) occ(16,8,6) occ(20,8,8) occ(26,8,13) occ(37,8,14) occ(43,8,9) occ(47,8,11) occ(55,8,7) occ(91,8,3) occ(96,8,4) occ(104,8,10) occ(131,8,1) occ(151,8,5) occ(10,9,10) occ(41,9,11) occ(51,9,8) occ(63,9,12) occ(67,9,14) occ(73,9,9) occ(77,9,13) occ(100,9,7) occ(105,9,5) occ(109,9,1) occ(114,9,6) occ(139,9,2) occ(149,9,3) occ(7,10,1) occ(14,10,7) occ(39,10,13) occ(45,10,10) occ(53,10,6) occ(69,10,12) occ(75,10,11) occ(102,10,9) occ(107,10,3) occ(128,10,14) occ(129,10,2) occ(141,10,4) occ(8,11,11) occ(12,11,9) occ(71,11,10) occ(111,11,2) occ(116,11,5) occ(120,11,7) occ(121,11,3) occ(130,11,12) occ(138,11,8) occ(143,11,6) occ(147,11,4) occ(152,11,13) occ(5,12,2) occ(117,12,4) occ(122,12,9) occ(123,12,1) occ(126,12,13) occ(127,12,3) occ(134,12,11) occ(140,12,6) occ(156,12,12) occ(160,12,10) occ(170,12,5) occ(6,13,10) occ(113,13,1) occ(118,13,6) occ(119,13,2) occ(124,13,11) occ(132,13,13) occ(136,13,9) occ(142,13,4) occ(145,13,5) occ(146,13,8) occ(150,13,12) occ(154,13,14) occ(164,13,7) occ(168,13,3) occ(4,14,8) occ(115,14,3) occ(125,14,2) occ(144,14,6) occ(148,14,10) occ(158,14,11) occ(162,14,9) occ(166,14,5)
Optimization: -169
Answer: 7
occ(1,4,10) occ(1,10,8) occ(1,10,5) occ(1,12,8) occ(1,6,1) occ(1,2,8) occ(1,6,10) occ(1,14,7) occ(1,2,13) occ(1,1,1) occ(2,12,7) occ(3,14,1) coverage(170) occ(31,1,6) occ(32,1,3) occ(90,1,10) occ(129,1,5) occ(135,1,2) occ(139,1,4) occ(143,1,8) occ(156,1,7) occ(160,1,11) occ(164,1,9) occ(168,1,13) occ(29,2,4) occ(30,2,1) occ(34,2,5) occ(72,2,14) occ(88,2,12) occ(127,2,7) occ(131,2,3) occ(141,2,6) occ(145,2,10) occ(148,2,2) occ(158,2,9) occ(166,2,11) occ(33,3,5) occ(40,3,7) occ(67,3,6) occ(74,3,12) occ(80,3,13) occ(86,3,14) occ(92,3,11) occ(125,3,9) occ(133,3,1) occ(137,3,3) occ(150,3,4) occ(154,3,8) occ(162,3,10) occ(27,4,3) occ(28,4,2) occ(35,4,7) occ(36,4,4) occ(59,4,5) occ(69,4,8) occ(70,4,13) occ(78,4,11) occ(84,4,12) occ(146,4,1) occ(147,4,9) occ(152,4,6) occ(19,5,2) occ(26,5,4) occ(38,5,6) occ(42,5,8) occ(57,5,7) occ(65,5,5) occ(73,5,9) occ(76,5,13) occ(82,5,14) occ(94,5,12) occ(123,5,10) occ(144,5,3) occ(149,5,11) occ(15,6,3) occ(25,6,2) occ(37,6,8) occ(46,6,9) occ(50,6,13) occ(61,6,6) occ(68,6,12) occ(71,6,7) occ(75,6,11) occ(96,6,14) occ(120,6,4) occ(17,7,1) occ(21,7,3) occ(24,7,5) occ(39,7,10) occ(44,7,7) occ(48,7,11) occ(55,7,8) occ(63,7,4) occ(77,7,13) occ(118,7,6) occ(121,7,9) occ(142,7,2) occ(151,7,12) occ(13,8,4) occ(23,8,1) occ(41,8,12) occ(51,8,9) occ(52,8,14) occ(66,8,11) occ(98,8,13) occ(116,8,8) occ(119,8,7) occ(122,8,3) occ(153,8,10) occ(8,9,9) occ(11,9,2) occ(22,9,6) occ(49,9,11) occ(53,9,7) occ(79,9,14) occ(91,9,12) occ(104,9,13) occ(117,9,5) occ(124,9,1) occ(140,9,3) occ(155,9,8) occ(159,9,4) occ(6,10,7) occ(43,10,11) occ(54,10,13) occ(64,10,12) occ(93,10,10) occ(100,10,14) occ(109,10,4) occ(114,10,9) occ(115,10,3) occ(138,10,1) occ(157,10,6) occ(161,10,2) occ(4,11,9) occ(9,11,3) occ(10,11,8) occ(20,11,7) occ(47,11,10) occ(81,11,13) occ(89,11,11) occ(101,11,5) occ(102,11,12) occ(106,11,14) occ(111,11,6) occ(126,11,2) occ(134,11,4) occ(169,11,1) occ(7,12,1) occ(16,12,6) occ(45,12,12) occ(56,12,14) occ(62,12,13) occ(95,12,9) occ(107,12,5) occ(112,12,10) occ(113,12,4) occ(136,12,2) occ(163,12,3) occ(5,13,3) occ(12,13,7) occ(18,13,8) occ(58,13,12) occ(83,13,14) occ(87,13,10) occ(99,13,6) occ(103,13,4) occ(108,13,13) occ(128,13,1) occ(132,13,5) occ(167,13,2) occ(14,14,5) occ(60,14,14) occ(85,14,12) occ(97,14,8) occ(105,14,6) occ(110,14,11) occ(130,14,3) occ(165,14,4)
Optimization: -170
Answer: 8
occ(1,4,10) occ(1,10,8) occ(1,10,5) occ(1,12,8) occ(1,6,1) occ(1,2,8) occ(1,6,10) occ(1,14,7) occ(1,2,13) occ(1,1,1) occ(2,12,7) occ(3,14,1) coverage(171) occ(31,1,6) occ(32,1,3) occ(82,1,14) occ(86,1,10) occ(129,1,5) occ(135,1,2) occ(139,1,4) occ(143,1,8) occ(156,1,9) occ(160,1,13) occ(168,1,11) occ(29,2,4) occ(30,2,1) occ(34,2,5) occ(72,2,14) occ(84,2,12) occ(127,2,7) occ(131,2,3) occ(141,2,6) occ(145,2,10) occ(148,2,2) occ(158,2,11) occ(170,2,9) occ(33,3,5) occ(40,3,7) occ(67,3,6) occ(74,3,12) occ(80,3,13) occ(88,3,11) occ(125,3,9) occ(133,3,1) occ(137,3,3) occ(150,3,4) occ(154,3,8) occ(162,3,14) occ(166,3,10) occ(27,4,3) occ(28,4,2) occ(35,4,7) occ(36,4,4) occ(59,4,5) occ(69,4,8) occ(70,4,13) occ(78,4,11) occ(146,4,1) occ(147,4,9) occ(152,4,6) occ(164,4,12) occ(19,5,2) occ(26,5,4) occ(38,5,6) occ(42,5,8) occ(57,5,7) occ(65,5,5) occ(73,5,9) occ(76,5,13) occ(90,5,12) occ(123,5,10) occ(144,5,3) occ(149,5,11) occ(15,6,3) occ(25,6,2) occ(37,6,8) occ(46,6,9) occ(50,6,13) occ(61,6,6) occ(68,6,12) occ(71,6,7) occ(75,6,11) occ(92,6,14) occ(120,6,4) occ(17,7,1) occ(21,7,3) occ(24,7,5) occ(39,7,10) occ(44,7,7) occ(48,7,11) occ(55,7,8) occ(63,7,4) occ(77,7,13) occ(118,7,6) occ(121,7,9) occ(142,7,2) occ(151,7,12) occ(13,8,4) occ(23,8,1) occ(41,8,12) occ(51,8,9) occ(52,8,14) occ(66,8,11) occ(94,8,13) occ(116,8,8) occ(119,8,7) occ(122,8,3) occ(153,8,10) occ(8,9,9) occ(11,9,2) occ(22,9,6) occ(49,9,11) occ(53,9,7) occ(79,9,14) occ(91,9,12) occ(100,9,13) occ(117,9,5) occ(124,9,1) occ(140,9,3) occ(155,9,8) occ(159,9,4) occ(6,10,7) occ(43,10,11) occ(54,10,13) occ(64,10,12) occ(93,10,10) occ(96,10,14) occ(109,10,4) occ(114,10,9) occ(115,10,3) occ(138,10,1) occ(157,10,6) occ(161,10,2) occ(4,11,9) occ(9,11,3) occ(10,11,8) occ(20,11,7) occ(47,11,10) occ(81,11,13) occ(89,11,11) occ(98,11,12) occ(101,11,5) occ(102,11,14) occ(111,11,6) occ(126,11,2) occ(134,11,4) occ(169,11,1) occ(7,12,1) occ(16,12,6) occ(45,12,12) occ(56,12,14) occ(62,12,13) occ(95,12,9) occ(106,12,11) occ(107,12,5) occ(112,12,10) occ(113,12,4) occ(136,12,2) occ(163,12,3) occ(5,13,3) occ(12,13,7) occ(18,13,8) occ(58,13,12) occ(83,13,14) occ(87,13,10) occ(99,13,6) occ(103,13,4) occ(104,13,13) occ(108,13,9) occ(128,13,1) occ(132,13,5) occ(167,13,2) occ(14,14,5) occ(60,14,14) occ(85,14,12) occ(97,14,8) occ(105,14,6) occ(110,14,11) occ(130,14,3) occ(165,14,4)
Optimization: -171
Answer: 9
occ(1,4,10) occ(1,10,8) occ(1,10,5) occ(1,12,8) occ(1,6,1) occ(1,2,8) occ(1,6,10) occ(1,14,7) occ(1,2,13) occ(1,1,1) occ(2,12,7) occ(3,14,1) coverage(173) occ(21,1,5) occ(25,1,9) occ(31,1,14) occ(35,1,12) occ(42,1,8) occ(46,1,4) occ(49,1,13) occ(90,1,2) occ(136,1,3) occ(168,1,7) occ(172,1,11) occ(19,2,3) occ(23,2,7) occ(29,2,12) occ(41,2,10) occ(44,2,6) occ(48,2,2) occ(51,2,11) occ(88,2,4) occ(138,2,1) occ(166,2,5) occ(170,2,9) occ(17,3,1) occ(27,3,10) occ(33,3,13) occ(37,3,11) occ(40,3,7) occ(47,3,14) occ(53,3,9) occ(57,3,5) occ(86,3,6) occ(92,3,3) occ(127,3,8) occ(134,3,2) occ(142,3,4) occ(15,4,3) occ(38,4,5) occ(39,4,9) occ(43,4,11) occ(50,4,1) occ(55,4,7) occ(80,4,8) occ(84,4,4) occ(87,4,13) occ(137,4,12) occ(140,4,2) occ(141,4,14) occ(164,4,6) occ(45,5,13) occ(52,5,3) occ(59,5,4) occ(82,5,6) occ(85,5,11) occ(94,5,2) occ(111,5,14) occ(125,5,9) occ(129,5,7) occ(132,5,1) occ(135,5,10) occ(143,5,12) occ(144,5,5) occ(162,5,8) occ(13,6,2) occ(18,6,3) occ(36,6,6) occ(54,6,5) occ(78,6,9) occ(89,6,14) occ(113,6,12) occ(133,6,8) occ(139,6,13) occ(146,6,7) occ(20,7,1) occ(34,7,4) occ(61,7,5) occ(76,7,7) occ(79,7,8) occ(83,7,12) occ(96,7,3) occ(109,7,13) occ(115,7,14) occ(123,7,10) occ(130,7,2) occ(131,7,6) occ(145,7,11) occ(160,7,9) occ(11,8,1) occ(16,8,4) occ(22,8,3) occ(32,8,2) occ(56,8,6) occ(74,8,9) occ(75,8,11) occ(81,8,10) occ(91,8,13) occ(98,8,5) occ(148,8,8) occ(149,8,12) occ(9,9,3) occ(14,9,2) occ(30,9,4) occ(63,9,6) occ(72,9,7) occ(77,9,9) occ(107,9,14) occ(116,9,5) occ(117,9,13) occ(121,9,11) occ(128,9,1) occ(147,9,10) occ(158,9,8) occ(7,10,1) occ(24,10,2) occ(58,10,7) occ(73,10,10) occ(93,10,14) occ(100,10,6) occ(105,10,12) occ(118,10,3) occ(150,10,9) occ(151,10,13) occ(171,10,11) occ(12,11,1) occ(28,11,3) occ(60,11,5) occ(65,11,7) occ(70,11,6) occ(101,11,13) occ(102,11,8) occ(114,11,4) occ(119,11,12) occ(126,11,2) occ(152,11,11) occ(156,11,9) occ(159,11,10) occ(167,11,14) occ(5,12,2) occ(26,12,1) occ(62,12,3) occ(67,12,5) occ(71,12,9) occ(95,12,13) occ(103,12,11) occ(104,12,10) occ(112,12,6) occ(120,12,4) occ(153,12,14) occ(169,12,12) occ(6,13,6) occ(10,13,2) occ(64,13,1) occ(68,13,5) occ(69,13,7) occ(99,13,14) occ(106,13,12) occ(110,13,8) occ(124,13,3) occ(154,13,10) occ(157,13,11) occ(161,13,9) occ(165,13,13) occ(4,14,8) occ(8,14,4) occ(66,14,3) occ(97,14,12) occ(108,14,10) occ(122,14,5) occ(155,14,13) occ(163,14,11)
Optimization: -173
Answer: 10
occ(1,4,10) occ(1,10,8) occ(1,10,5) occ(1,12,8) occ(1,6,1) occ(1,2,8) occ(1,6,10) occ(1,14,7) occ(1,2,13) occ(1,1,1) occ(2,12,7) occ(3,14,1) coverage(175) occ(28,1,13) occ(34,1,14) occ(35,1,2) occ(51,1,10) occ(119,1,12) occ(133,1,5) occ(139,1,4) occ(157,1,11) occ(161,1,7) occ(165,1,3) occ(26,2,11) occ(29,2,2) occ(32,2,12) occ(37,2,4) occ(117,2,14) occ(121,2,10) occ(135,2,7) occ(141,2,6) occ(159,2,9) occ(163,2,5) occ(167,2,1) occ(171,2,3) occ(30,3,14) occ(33,3,3) occ(36,3,13) occ(49,3,9) occ(53,3,11) occ(75,3,6) occ(115,3,12) occ(125,3,7) occ(131,3,4) occ(137,3,5) occ(143,3,8) occ(155,3,10) occ(166,3,2) occ(173,3,1) occ(24,4,12) occ(27,4,3) occ(31,4,1) occ(39,4,5) occ(42,4,11) occ(47,4,7) occ(55,4,13) occ(77,4,8) occ(113,4,14) occ(123,4,9) occ(129,4,6) occ(164,4,4) occ(169,4,2) occ(25,5,5) occ(38,5,14) occ(43,5,6) occ(44,5,13) occ(73,5,7) occ(79,5,10) occ(111,5,12) occ(127,5,8) occ(134,5,4) occ(145,5,9) occ(153,5,11) occ(162,5,2) occ(168,5,1) occ(172,5,3) occ(22,6,13) occ(23,6,3) occ(40,6,12) occ(41,6,4) occ(45,6,8) occ(46,6,11) occ(57,6,14) occ(62,6,5) occ(102,6,7) occ(132,6,6) occ(136,6,2) occ(151,6,9) occ(10,7,14) occ(59,7,12) occ(60,7,3) occ(71,7,6) occ(81,7,11) occ(100,7,9) occ(109,7,13) occ(112,7,7) occ(147,7,10) occ(160,7,1) occ(170,7,2) occ(174,7,4) occ(8,8,12) occ(20,8,14) occ(21,8,2) occ(48,8,10) occ(58,8,5) occ(64,8,4) occ(83,8,13) occ(98,8,11) occ(104,8,6) occ(114,8,9) occ(130,8,7) occ(138,8,1) occ(142,8,3) occ(149,8,8) occ(6,9,10) occ(12,9,13) occ(50,9,12) occ(56,9,7) occ(61,9,11) occ(65,9,9) occ(68,9,1) occ(69,9,5) occ(72,9,3) occ(106,9,4) occ(107,9,14) occ(110,9,6) occ(126,9,8) occ(158,9,2) occ(18,10,13) occ(19,10,1) occ(54,10,9) occ(66,10,3) occ(67,10,7) occ(85,10,14) occ(96,10,12) occ(116,10,10) occ(128,10,6) occ(140,10,2) occ(144,10,4) occ(4,11,9) occ(14,11,14) occ(52,11,11) occ(63,11,10) occ(70,11,2) occ(74,11,4) occ(86,11,8) occ(87,11,12) occ(105,11,13) occ(108,11,5) occ(124,11,7) occ(146,11,6) occ(156,11,3) occ(7,12,5) occ(13,12,4) occ(16,12,12) occ(17,12,2) occ(76,12,6) occ(80,12,10) occ(93,12,14) occ(94,12,11) occ(99,12,13) occ(118,12,9) occ(150,12,3) occ(154,12,1) occ(5,13,3) occ(11,13,2) occ(78,13,8) occ(84,13,7) occ(88,13,9) occ(89,13,11) occ(92,13,13) occ(95,13,12) occ(103,13,14) occ(122,13,6) occ(148,13,5) occ(9,14,4) occ(15,14,3) occ(82,14,9) occ(90,14,11) occ(91,14,13) occ(97,14,14) occ(101,14,12) occ(120,14,8) occ(152,14,2)
Optimization: -175
Answer: 11
occ(1,4,10) occ(1,10,8) occ(1,10,5) occ(1,12,8) occ(1,6,1) occ(1,2,8) occ(1,6,10) occ(1,14,7) occ(1,2,13) occ(1,1,1) occ(2,12,7) occ(3,14,1) coverage(176) occ(73,1,11) occ(93,1,5) occ(106,1,2) occ(130,1,12) occ(156,1,3) occ(168,1,9) occ(169,1,13) occ(174,1,4) occ(69,2,12) occ(75,2,9) occ(91,2,3) occ(105,2,2) occ(108,2,4) occ(132,2,14) occ(136,2,10) occ(158,2,1) occ(166,2,7) occ(167,2,11) occ(172,2,6) occ(65,3,11) occ(71,3,10) occ(77,3,7) occ(95,3,4) occ(101,3,3) occ(104,3,1) occ(110,3,6) occ(128,3,13) occ(134,3,12) occ(154,3,2) occ(164,3,5) occ(165,3,9) occ(170,3,8) occ(171,3,14) occ(51,4,9) occ(67,4,13) occ(81,4,8) occ(85,4,6) occ(89,4,4) occ(99,4,5) occ(103,4,1) occ(107,4,3) occ(138,4,11) occ(160,4,2) occ(163,4,7) occ(173,4,12) occ(40,5,13) occ(53,5,11) occ(63,5,12) occ(79,5,6) occ(97,5,3) occ(102,5,2) occ(112,5,7) occ(126,5,14) occ(140,5,9) occ(152,5,1) occ(161,5,5) occ(162,5,4) occ(175,5,10) occ(17,6,6) occ(38,6,11) occ(49,6,8) occ(55,6,13) occ(61,6,14) occ(83,6,7) occ(87,6,5) occ(109,6,2) occ(114,6,9) occ(124,6,12) occ(148,6,4) occ(159,6,3) occ(19,7,4) occ(42,7,14) occ(47,7,10) occ(59,7,12) occ(72,7,13) occ(100,7,1) occ(113,7,3) occ(116,7,7) occ(120,7,11) occ(142,7,8) occ(146,7,6) occ(150,7,2) occ(157,7,5) occ(15,8,5) occ(20,8,6) occ(25,8,2) occ(36,8,10) occ(45,8,8) occ(57,8,14) occ(60,8,12) occ(70,8,11) occ(98,8,3) occ(111,8,1) occ(117,8,4) occ(118,8,9) occ(122,8,13) occ(155,8,7) occ(18,9,8) occ(21,9,3) occ(22,9,4) occ(43,9,10) occ(44,9,13) occ(58,9,14) occ(64,9,11) occ(74,9,12) occ(96,9,5) occ(115,9,2) occ(119,9,6) occ(144,9,7) occ(153,9,9) occ(13,10,4) occ(23,10,1) occ(27,10,3) occ(34,10,9) occ(56,10,12) occ(62,10,13) occ(68,10,10) occ(76,10,14) occ(123,10,7) occ(141,10,2) occ(145,10,6) occ(151,10,11) occ(7,11,2) occ(8,11,13) occ(16,11,9) occ(24,11,3) occ(29,11,1) occ(32,11,7) occ(41,11,11) occ(46,11,14) occ(54,11,10) occ(66,11,12) occ(94,11,6) occ(121,11,5) occ(143,11,4) occ(147,11,8) occ(6,12,11) occ(11,12,3) occ(26,12,5) occ(39,12,9) occ(52,12,12) occ(78,12,13) occ(84,12,14) occ(125,12,6) occ(129,12,4) occ(133,12,2) occ(139,12,1) occ(149,12,10) occ(4,13,9) occ(5,13,3) occ(9,13,1) occ(10,13,14) occ(14,13,10) occ(30,13,8) occ(31,13,2) occ(35,13,6) occ(48,13,13) occ(82,13,12) occ(88,13,11) occ(92,13,7) occ(135,13,4) occ(12,14,12) occ(28,14,6) occ(33,14,4) occ(37,14,8) occ(50,14,11) occ(80,14,14) occ(86,14,13) occ(90,14,9) occ(127,14,5) occ(131,14,3) occ(137,14,2)
Optimization: -176
Answer: 12
occ(1,4,10) occ(1,10,8) occ(1,10,5) occ(1,12,8) occ(1,6,1) occ(1,2,8) occ(1,6,10) occ(1,14,7) occ(1,2,13) occ(1,1,1) occ(2,12,7) occ(3,14,1) coverage(177) occ(46,1,12) occ(50,1,14) occ(54,1,10) occ(58,1,8) occ(64,1,9) occ(68,1,13) occ(109,1,5) occ(119,1,6) occ(163,1,2) occ(169,1,3) occ(173,1,7) occ(44,2,14) occ(52,2,12) occ(60,2,6) occ(66,2,11) occ(107,2,7) occ(117,2,4) occ(128,2,10) occ(143,2,3) occ(149,2,2) occ(167,2,1) occ(171,2,5) occ(175,2,9) occ(42,3,12) occ(48,3,13) occ(56,3,9) occ(62,3,8) occ(70,3,14) occ(99,3,2) occ(111,3,6) occ(121,3,7) occ(124,3,11) occ(141,3,5) occ(147,3,4) occ(161,3,1) occ(165,3,3) occ(97,4,4) occ(105,4,6) occ(115,4,5) occ(120,4,14) occ(125,4,8) occ(126,4,9) occ(129,4,12) occ(130,4,11) occ(139,4,7) occ(145,4,2) occ(151,4,1) occ(159,4,3) occ(40,5,11) occ(72,5,13) occ(75,5,4) occ(95,5,2) occ(101,5,3) occ(113,5,7) occ(122,5,12) occ(123,5,6) occ(127,5,10) occ(131,5,14) occ(132,5,9) occ(150,5,8) occ(157,5,5) occ(11,6,3) occ(15,6,7) occ(73,6,6) occ(74,6,11) occ(78,6,9) occ(89,6,4) occ(103,6,5) occ(118,6,13) occ(133,6,12) occ(137,6,8) occ(153,6,2) occ(13,7,5) occ(38,7,12) occ(77,7,3) occ(80,7,11) occ(87,7,6) occ(92,7,13) occ(93,7,1) occ(134,7,8) occ(135,7,10) occ(148,7,7) occ(152,7,9) occ(155,7,4) occ(162,7,2) occ(9,8,2) occ(17,8,8) occ(21,8,12) occ(26,8,9) occ(71,8,7) occ(76,8,10) occ(82,8,13) occ(90,8,11) occ(91,8,3) occ(116,8,14) occ(136,8,6) occ(142,8,1) occ(146,8,5) occ(160,8,4) occ(19,9,10) occ(23,9,14) occ(24,9,7) occ(28,9,11) occ(36,9,13) occ(57,9,9) occ(79,9,2) occ(85,9,5) occ(94,9,12) occ(138,9,4) occ(144,9,3) occ(154,9,8) occ(158,9,6) occ(164,9,1) occ(7,10,1) occ(20,10,10) occ(43,10,3) occ(55,10,11) occ(59,10,7) occ(69,10,6) occ(81,10,4) occ(84,10,14) occ(88,10,12) occ(98,10,9) occ(114,10,13) occ(140,10,2) occ(22,11,8) occ(25,11,13) occ(30,11,12) occ(34,11,14) occ(41,11,1) occ(45,11,5) occ(53,11,9) occ(63,11,4) occ(83,11,6) occ(96,11,11) occ(106,11,10) occ(156,11,7) occ(166,11,2) occ(176,11,3) occ(5,12,2) occ(8,12,4) occ(18,12,9) occ(61,12,6) occ(67,12,5) occ(86,12,13) occ(100,12,10) occ(108,12,12) occ(112,12,14) occ(170,12,3) occ(174,12,1) occ(4,13,5) occ(12,13,7) occ(16,13,11) occ(27,13,14) occ(31,13,10) occ(32,13,13) occ(35,13,6) occ(39,13,2) occ(47,13,4) occ(51,13,8) occ(65,13,3) occ(104,13,9) occ(168,13,1) occ(6,14,3) occ(10,14,5) occ(14,14,9) occ(29,14,12) occ(33,14,8) occ(37,14,4) occ(49,14,6) occ(102,14,11) occ(110,14,13) occ(172,14,2)
Optimization: -177
Answer: 13
occ(1,4,10) occ(1,10,8) occ(1,10,5) occ(1,12,8) occ(1,6,1) occ(1,2,8) occ(1,6,10) occ(1,14,7) occ(1,2,13) occ(1,1,1) occ(2,12,7) occ(3,14,1) coverage(178) occ(46,1,12) occ(50,1,14) occ(54,1,10) occ(58,1,8) occ(64,1,9) occ(68,1,13) occ(109,1,5) occ(119,1,6) occ(163,1,2) occ(169,1,3) occ(173,1,7) occ(177,1,11) occ(44,2,14) occ(52,2,12) occ(60,2,6) occ(66,2,11) occ(107,2,7) occ(117,2,4) occ(128,2,10) occ(143,2,3) occ(149,2,2) occ(167,2,1) occ(171,2,5) occ(175,2,9) occ(42,3,12) occ(48,3,13) occ(56,3,9) occ(62,3,8) occ(70,3,14) occ(99,3,2) occ(111,3,6) occ(121,3,7) occ(124,3,11) occ(141,3,5) occ(147,3,4) occ(161,3,1) occ(165,3,3) occ(97,4,4) occ(105,4,6) occ(115,4,5) occ(120,4,14) occ(125,4,8) occ(126,4,9) occ(129,4,12) occ(130,4,11) occ(139,4,7) occ(145,4,2) occ(151,4,1) occ(159,4,3) occ(40,5,11) occ(72,5,13) occ(75,5,4) occ(95,5,2) occ(101,5,3) occ(113,5,7) occ(122,5,12) occ(123,5,6) occ(127,5,10) occ(131,5,14) occ(132,5,9) occ(150,5,8) occ(157,5,5) occ(11,6,3) occ(15,6,7) occ(73,6,6) occ(74,6,11) occ(78,6,9) occ(89,6,4) occ(103,6,5) occ(118,6,13) occ(133,6,12) occ(137,6,8) occ(153,6,2) occ(13,7,5) occ(38,7,12) occ(77,7,3) occ(80,7,11) occ(87,7,6) occ(92,7,13) occ(93,7,1) occ(134,7,8) occ(135,7,10) occ(148,7,7) occ(152,7,9) occ(155,7,4) occ(162,7,2) occ(9,8,2) occ(17,8,8) occ(21,8,12) occ(26,8,9) occ(71,8,7) occ(76,8,10) occ(82,8,13) occ(90,8,11) occ(91,8,3) occ(116,8,14) occ(136,8,6) occ(142,8,1) occ(146,8,5) occ(160,8,4) occ(19,9,10) occ(23,9,14) occ(24,9,7) occ(28,9,11) occ(36,9,13) occ(57,9,9) occ(79,9,2) occ(85,9,5) occ(94,9,12) occ(138,9,4) occ(144,9,3) occ(154,9,8) occ(158,9,6) occ(164,9,1) occ(7,10,1) occ(20,10,10) occ(43,10,3) occ(55,10,11) occ(59,10,7) occ(69,10,6) occ(81,10,4) occ(84,10,14) occ(88,10,12) occ(98,10,9) occ(114,10,13) occ(140,10,2) occ(22,11,8) occ(25,11,13) occ(30,11,12) occ(34,11,14) occ(41,11,1) occ(45,11,5) occ(53,11,9) occ(63,11,4) occ(83,11,6) occ(96,11,11) occ(106,11,10) occ(156,11,7) occ(166,11,2) occ(176,11,3) occ(5,12,2) occ(8,12,4) occ(18,12,9) occ(61,12,6) occ(67,12,5) occ(86,12,13) occ(100,12,10) occ(108,12,12) occ(112,12,14) occ(170,12,3) occ(174,12,1) occ(4,13,5) occ(12,13,7) occ(16,13,11) occ(27,13,14) occ(31,13,10) occ(32,13,13) occ(35,13,6) occ(39,13,2) occ(47,13,4) occ(51,13,8) occ(65,13,3) occ(104,13,9) occ(168,13,1) occ(6,14,3) occ(10,14,5) occ(14,14,9) occ(29,14,12) occ(33,14,8) occ(37,14,4) occ(49,14,6) occ(102,14,11) occ(110,14,13) occ(172,14,2)
Optimization: -178
Answer: 14
occ(1,4,10) occ(1,10,8) occ(1,10,5) occ(1,12,8) occ(1,6,1) occ(1,2,8) occ(1,6,10) occ(1,14,7) occ(1,2,13) occ(1,1,1) occ(2,12,7) occ(3,14,1) coverage(179) occ(33,1,9) occ(51,1,2) occ(109,1,3) occ(117,1,5) occ(126,1,12) occ(130,1,8) occ(165,1,7) occ(168,1,13) occ(174,1,14) occ(35,2,7) occ(41,2,6) occ(49,2,4) occ(107,2,5) occ(111,2,1) occ(115,2,3) occ(124,2,14) occ(128,2,10) occ(163,2,9) occ(166,2,11) occ(172,2,12) occ(31,3,10) occ(39,3,8) occ(47,3,2) occ(53,3,1) occ(61,3,5) occ(105,3,3) occ(119,3,4) occ(122,3,12) occ(132,3,7) occ(136,3,11) occ(164,3,9) occ(167,3,6) occ(170,3,14) occ(176,3,13) occ(12,4,12) occ(37,4,6) occ(43,4,5) occ(46,4,7) occ(55,4,3) occ(103,4,1) occ(113,4,2) occ(120,4,14) occ(134,4,9) occ(138,4,13) occ(161,4,8) occ(162,4,11) occ(169,4,4) occ(10,5,10) occ(29,5,11) occ(45,5,3) occ(48,5,9) occ(59,5,6) occ(63,5,4) occ(100,5,7) occ(118,5,12) occ(121,5,5) occ(160,5,13) occ(171,5,2) occ(177,5,1) occ(178,5,14) occ(8,6,8) occ(14,6,13) occ(25,6,14) occ(44,6,6) occ(50,6,11) occ(57,6,4) occ(101,6,2) occ(102,6,5) occ(123,6,7) occ(140,6,12) occ(159,6,9) occ(175,6,3) occ(27,7,12) occ(65,7,3) occ(94,7,4) occ(98,7,8) occ(104,7,7) occ(108,7,11) occ(112,7,9) occ(116,7,13) occ(125,7,5) occ(131,7,6) occ(135,7,2) occ(142,7,10) occ(158,7,14) occ(173,7,1) occ(6,8,7) occ(16,8,14) occ(23,8,13) occ(42,8,5) occ(52,8,12) occ(64,8,8) occ(92,8,2) occ(96,8,6) occ(99,8,1) occ(106,8,9) occ(114,8,11) occ(127,8,3) occ(133,8,4) occ(157,8,10) occ(19,9,12) occ(40,9,7) occ(54,9,14) occ(60,9,9) occ(67,9,4) occ(83,9,2) occ(97,9,3) occ(110,9,10) occ(129,9,5) occ(137,9,1) occ(143,9,6) occ(144,9,11) occ(155,9,8) occ(156,9,13) occ(4,10,6) occ(18,10,13) occ(21,10,14) occ(28,10,12) occ(36,10,10) occ(58,10,11) occ(62,10,7) occ(66,10,9) occ(69,10,2) occ(90,10,1) occ(139,10,3) occ(145,10,4) occ(17,11,11) occ(38,11,8) occ(56,11,13) occ(71,11,4) occ(74,11,12) occ(81,11,3) occ(82,11,6) occ(85,11,1) occ(95,11,2) occ(141,11,5) occ(146,11,10) occ(149,11,7) occ(153,11,9) occ(154,11,14) occ(9,12,4) occ(20,12,12) occ(26,12,13) occ(30,12,11) occ(34,12,9) occ(68,12,10) occ(72,12,14) occ(73,12,6) occ(79,12,1) occ(88,12,2) occ(91,12,3) occ(147,12,5) occ(5,13,3) occ(11,13,6) occ(15,13,10) occ(22,13,14) occ(70,13,12) occ(75,13,4) occ(76,13,11) occ(80,13,7) occ(84,13,5) occ(87,13,2) occ(93,13,1) occ(148,13,9) occ(151,13,8) occ(152,13,13) occ(7,14,5) occ(13,14,8) occ(24,14,12) occ(32,14,10) occ(77,14,2) occ(78,14,9) occ(86,14,3) occ(89,14,4) occ(150,14,11)
Optimization: -179
*** Info : (clingo): INTERRUPTED by signal!
SATISFIABLE

TIME LIMIT   : 1
Models       : 14+
  Optimum    : unknown
Optimization : -179
Calls        : 1
Time         : 300.000s (Solving: 285.65s 1st Model: 0.01s Unsat: 0.00s)
CPU Time     : 299.968s
